GLPSOL--GLPK LP/MIP Solver 5.0
Parameter(s) specified in the command line:
 --cpxlp --first inputs/new_tr/order/jump30_up_right_input.lp -o solutions/new_tr/jump30_up_right_input.lp
Reading problem data from 'inputs/new_tr/order/jump30_up_right_input.lp'...
inputs/new_tr/order/jump30_up_right_input.lp:4312: warning: lower bound of variable 'm_30_30' redefined
inputs/new_tr/order/jump30_up_right_input.lp:4312: warning: upper bound of variable 'm_30_30' redefined
4097 rows, 1831 columns, 12379 non-zeros
1831 integer variables, 1623 of which are binary
6112 lines were read
GLPK Integer Optimizer 5.0
4097 rows, 1831 columns, 12379 non-zeros
1831 integer variables, 1623 of which are binary
Preprocessing...
183 hidden packing inequaliti(es) were detected
195 hidden covering inequaliti(es) were detected
716 constraint coefficient(s) were reduced
3590 rows, 1498 columns, 10497 non-zeros
1498 integer variables, 1467 of which are binary
Scaling...
 A: min|aij| =  1.000e+00  max|aij| =  1.024e+04  ratio =  1.024e+04
GM: min|aij| =  4.273e-01  max|aij| =  2.340e+00  ratio =  5.477e+00
EQ: min|aij| =  1.826e-01  max|aij| =  1.000e+00  ratio =  5.477e+00
2N: min|aij| =  1.250e-01  max|aij| =  1.500e+00  ratio =  1.200e+01
Constructing initial basis...
Size of triangular part is 3232
Solving LP relaxation...
GLPK Simplex Optimizer 5.0
3590 rows, 1498 columns, 10497 non-zeros
      0: obj =   2.662400000e+04 inf =   4.800e+02 (240)
    846: obj =   3.780097481e+04 inf =   1.642e-13 (0) 7
*  2189: obj =   2.998460864e+04 inf =   2.900e-15 (0) 13
OPTIMAL LP SOLUTION FOUND
Integer optimization begins...
Long-step dual simplex will be used
+  2189: mip =     not found yet >=              -inf        (1; 0)
+ 19801: mip =     not found yet >=   3.128100000e+04        (23; 4)
+ 36713: mip =     not found yet >=   3.234400000e+04        (31; 7)
+ 54624: mip =     not found yet >=   3.234900000e+04        (57; 12)
+ 72561: mip =     not found yet >=   3.242300000e+04        (64; 18)
+ 90296: mip =     not found yet >=   3.262100000e+04        (76; 28)
+108443: mip =     not found yet >=   3.295600000e+04        (90; 33)
+124744: mip =     not found yet >=   3.315500000e+04        (130; 43)
+141817: mip =     not found yet >=   3.319600000e+04        (154; 46)
+160692: mip =     not found yet >=   3.339300000e+04        (190; 60)
+174476: >>>>>   5.836800000e+04 >=   3.342300000e+04  42.7% (247; 63)
+191198: mip =   5.836800000e+04 >=   3.346700000e+04  42.7% (262; 97)
Time used: 60.0 secs.  Memory used: 6.8 Mb.
+209963: mip =   5.836800000e+04 >=   3.365300000e+04  42.3% (299; 105)
+231066: mip =   5.836800000e+04 >=   3.375900000e+04  42.2% (326; 109)
+247507: mip =   5.836800000e+04 >=   3.379200000e+04  42.1% (356; 114)
+265059: mip =   5.836800000e+04 >=   3.379200000e+04  42.1% (428; 129)
+276711: >>>>>   5.529600000e+04 >=   3.379200000e+04  38.9% (487; 131)
+294916: mip =   5.529600000e+04 >=   3.379200000e+04  38.9% (503; 182)
+313183: mip =   5.529600000e+04 >=   3.379200000e+04  38.9% (541; 184)
+331574: mip =   5.529600000e+04 >=   3.379200000e+04  38.9% (599; 187)
Solution found by heuristic: 52224
+347699: >>>>>   5.017600000e+04 >=   3.379200000e+04  32.7% (662; 209)
+367368: mip =   5.017600000e+04 >=   3.379200000e+04  32.7% (695; 255)
+384234: mip =   5.017600000e+04 >=   3.379200000e+04  32.7% (734; 269)
+402950: mip =   5.017600000e+04 >=   3.379200000e+04  32.7% (794; 284)
Time used: 120.0 secs.  Memory used: 10.7 Mb.
+420266: mip =   5.017600000e+04 >=   3.379200000e+04  32.7% (890; 297)
+437478: mip =   5.017600000e+04 >=   3.379200000e+04  32.7% (935; 312)
+455721: mip =   5.017600000e+04 >=   3.379200000e+04  32.7% (993; 325)
+472260: mip =   5.017600000e+04 >=   3.379200000e+04  32.7% (1066; 341)
+490244: mip =   5.017600000e+04 >=   3.379200000e+04  32.7% (1131; 355)
+508580: mip =   5.017600000e+04 >=   3.379200000e+04  32.7% (1162; 364)
+525903: mip =   5.017600000e+04 >=   3.379200000e+04  32.7% (1209; 370)
+543886: mip =   5.017600000e+04 >=   3.379200000e+04  32.7% (1267; 377)
+561035: mip =   5.017600000e+04 >=   3.379200000e+04  32.7% (1332; 386)
+578754: mip =   5.017600000e+04 >=   3.379200000e+04  32.7% (1385; 398)
+598118: mip =   5.017600000e+04 >=   3.379200000e+04  32.7% (1475; 410)
Time used: 180.1 secs.  Memory used: 15.3 Mb.
+616985: mip =   5.017600000e+04 >=   3.379200000e+04  32.7% (1526; 415)
+635859: mip =   5.017600000e+04 >=   3.379200000e+04  32.7% (1639; 430)
+653355: mip =   5.017600000e+04 >=   3.379200000e+04  32.7% (1718; 444)
+671481: mip =   5.017600000e+04 >=   3.379200000e+04  32.7% (1808; 462)
+689784: mip =   5.017600000e+04 >=   3.379200000e+04  32.7% (1858; 467)
+706553: mip =   5.017600000e+04 >=   3.379200000e+04  32.7% (1894; 475)
+726581: mip =   5.017600000e+04 >=   3.379200000e+04  32.7% (1951; 479)
+744551: mip =   5.017600000e+04 >=   3.379200000e+04  32.7% (1989; 482)
+761917: mip =   5.017600000e+04 >=   3.379200000e+04  32.7% (2016; 485)
+775069: >>>>>   4.915200000e+04 >=   3.379200000e+04  31.2% (2087; 491)
+792037: mip =   4.915200000e+04 >=   3.379200000e+04  31.2% (2026; 628)
+797013: >>>>>   4.505600000e+04 >=   3.379200000e+04  25.0% (2064; 629)
+815733: mip =   4.505600000e+04 >=   3.379200000e+04  25.0% (1709; 1366)
Time used: 240.3 secs.  Memory used: 19.6 Mb.
+833224: mip =   4.505600000e+04 >=   3.379200000e+04  25.0% (1750; 1377)
+853178: mip =   4.505600000e+04 >=   3.380400000e+04  25.0% (1781; 1385)
+870290: mip =   4.505600000e+04 >=   3.395400000e+04  24.6% (1799; 1391)
+890385: mip =   4.505600000e+04 >=   3.399700000e+04  24.5% (1833; 1401)
+909527: mip =   4.505600000e+04 >=   3.401700000e+04  24.5% (1879; 1410)
+925574: mip =   4.505600000e+04 >=   3.412400000e+04  24.3% (1909; 1424)
+942502: mip =   4.505600000e+04 >=   3.413400000e+04  24.2% (1985; 1437)
+961630: mip =   4.505600000e+04 >=   3.413400000e+04  24.2% (2111; 1459)
+980714: mip =   4.505600000e+04 >=   3.413400000e+04  24.2% (2254; 1480)
+1000277: mip =   4.505600000e+04 >=   3.416100000e+04  24.2% (2321; 1493)
+1017942: mip =   4.505600000e+04 >=   3.416100000e+04  24.2% (2410; 1509)
Time used: 300.6 secs.  Memory used: 22.4 Mb.
+1035160: mip =   4.505600000e+04 >=   3.416100000e+04  24.2% (2491; 1519)
+1054064: mip =   4.505600000e+04 >=   3.416100000e+04  24.2% (2534; 1527)
+1071674: mip =   4.505600000e+04 >=   3.416100000e+04  24.2% (2559; 1543)
+1089614: mip =   4.505600000e+04 >=   3.417600000e+04  24.1% (2675; 1570)
+1107627: mip =   4.505600000e+04 >=   3.419000000e+04  24.1% (2723; 1577)
+1126825: mip =   4.505600000e+04 >=   3.421400000e+04  24.1% (2769; 1587)
+1138251: >>>>>   4.403200000e+04 >=   3.424800000e+04  22.2% (2799; 1602)
+1157158: mip =   4.403200000e+04 >=   3.431200000e+04  22.1% (2557; 2156)
+1175342: mip =   4.403200000e+04 >=   3.433900000e+04  22.0% (2614; 2165)
+1193727: mip =   4.403200000e+04 >=   3.433900000e+04  22.0% (2706; 2180)
+1211684: mip =   4.403200000e+04 >=   3.434600000e+04  22.0% (2816; 2197)
+1229633: mip =   4.403200000e+04 >=   3.436600000e+04  22.0% (2849; 2205)
Time used: 360.7 secs.  Memory used: 26.0 Mb.
+1247750: mip =   4.403200000e+04 >=   3.438500000e+04  21.9% (2853; 2211)
+1266339: mip =   4.403200000e+04 >=   3.440700000e+04  21.9% (2883; 2220)
+1285285: mip =   4.403200000e+04 >=   3.442800000e+04  21.8% (2916; 2230)
+1303992: mip =   4.403200000e+04 >=   3.449700000e+04  21.7% (2953; 2256)
+1305302: >>>>>   4.198400000e+04 >=   3.449800000e+04  17.8% (2992; 2257)
+1323447: mip =   4.198400000e+04 >=   3.457400000e+04  17.6% (2766; 2878)
+1341490: mip =   4.198400000e+04 >=   3.460700000e+04  17.6% (2829; 2896)
+1360365: mip =   4.198400000e+04 >=   3.465300000e+04  17.5% (2880; 2915)
+1378916: mip =   4.198400000e+04 >=   3.465300000e+04  17.5% (2897; 2927)
+1397081: mip =   4.198400000e+04 >=   3.465300000e+04  17.5% (2912; 2941)
+1414638: mip =   4.198400000e+04 >=   3.465300000e+04  17.5% (2934; 2955)
+1433416: mip =   4.198400000e+04 >=   3.465300000e+04  17.5% (2938; 2966)
+1453741: mip =   4.198400000e+04 >=   3.477600000e+04  17.2% (2995; 3011)
Time used: 420.7 secs.  Memory used: 27.6 Mb.
+1472718: mip =   4.198400000e+04 >=   3.477600000e+04  17.2% (3004; 3021)
+1491842: mip =   4.198400000e+04 >=   3.480400000e+04  17.1% (3050; 3035)
+1509746: mip =   4.198400000e+04 >=   3.481600000e+04  17.1% (3135; 3055)
+1529068: mip =   4.198400000e+04 >=   3.481600000e+04  17.1% (3336; 3093)
+1547846: mip =   4.198400000e+04 >=   3.481600000e+04  17.1% (3401; 3107)
+1566219: mip =   4.198400000e+04 >=   3.481600000e+04  17.1% (3483; 3130)
+1584891: mip =   4.198400000e+04 >=   3.481600000e+04  17.1% (3567; 3161)
+1602471: mip =   4.198400000e+04 >=   3.481600000e+04  17.1% (3605; 3185)
+1615868: >>>>>   4.096000000e+04 >=   3.481600000e+04  15.0% (3665; 3195)
+1634626: mip =   4.096000000e+04 >=   3.481600000e+04  15.0% (3202; 4371)
+1651664: mip =   4.096000000e+04 >=   3.481600000e+04  15.0% (3221; 4393)
Time used: 480.7 secs.  Memory used: 32.6 Mb.
+1669439: mip =   4.096000000e+04 >=   3.481600000e+04  15.0% (3252; 4410)
+1687793: mip =   4.096000000e+04 >=   3.484800000e+04  14.9% (3258; 4435)
+1704957: mip =   4.096000000e+04 >=   3.487800000e+04  14.8% (3267; 4457)
+1722521: mip =   4.096000000e+04 >=   3.491300000e+04  14.8% (3270; 4469)
+1739407: mip =   4.096000000e+04 >=   3.496000000e+04  14.6% (3284; 4488)
+1757967: mip =   4.096000000e+04 >=   3.499000000e+04  14.6% (3304; 4502)
+1777522: mip =   4.096000000e+04 >=   3.502100000e+04  14.5% (3311; 4552)
+1795817: mip =   4.096000000e+04 >=   3.502300000e+04  14.5% (3371; 4601)
+1815001: mip =   4.096000000e+04 >=   3.504100000e+04  14.5% (3397; 4608)
+1832774: mip =   4.096000000e+04 >=   3.506700000e+04  14.4% (3400; 4630)
+1850816: mip =   4.096000000e+04 >=   3.507300000e+04  14.4% (3400; 4650)
+1869863: mip =   4.096000000e+04 >=   3.508100000e+04  14.4% (3413; 4655)
Time used: 540.8 secs.  Memory used: 35.2 Mb.
+1886803: mip =   4.096000000e+04 >=   3.510100000e+04  14.3% (3430; 4666)
+1903585: mip =   4.096000000e+04 >=   3.512000000e+04  14.3% (3439; 4670)
+1920545: mip =   4.096000000e+04 >=   3.517400000e+04  14.1% (3428; 4719)
+1939451: mip =   4.096000000e+04 >=   3.519600000e+04  14.1% (3416; 4749)
+1957733: mip =   4.096000000e+04 >=   3.520900000e+04  14.0% (3436; 4772)
+1976634: mip =   4.096000000e+04 >=   3.524700000e+04  13.9% (3526; 4832)
+1994303: mip =   4.096000000e+04 >=   3.526900000e+04  13.9% (3462; 4960)
+2012829: mip =   4.096000000e+04 >=   3.528500000e+04  13.9% (3451; 4982)
+2030687: mip =   4.096000000e+04 >=   3.531300000e+04  13.8% (3456; 5002)
+2048568: mip =   4.096000000e+04 >=   3.536300000e+04  13.7% (3480; 5030)
+2066187: mip =   4.096000000e+04 >=   3.537400000e+04  13.6% (3593; 5069)
+2084593: mip =   4.096000000e+04 >=   3.541900000e+04  13.5% (3596; 5098)
Time used: 601.3 secs.  Memory used: 38.8 Mb.
+2102060: mip =   4.096000000e+04 >=   3.546000000e+04  13.4% (3586; 5137)
+2120389: mip =   4.096000000e+04 >=   3.546900000e+04  13.4% (3589; 5142)
+2138390: mip =   4.096000000e+04 >=   3.554300000e+04  13.2% (3562; 5248)
+2155908: mip =   4.096000000e+04 >=   3.558700000e+04  13.1% (3567; 5264)
+2173032: mip =   4.096000000e+04 >=   3.563700000e+04  13.0% (3559; 5313)
+2190810: mip =   4.096000000e+04 >=   3.568800000e+04  12.9% (3534; 5408)
+2207590: mip =   4.096000000e+04 >=   3.569600000e+04  12.9% (3537; 5413)
+2227261: mip =   4.096000000e+04 >=   3.572800000e+04  12.8% (3534; 5437)
+2246042: mip =   4.096000000e+04 >=   3.581500000e+04  12.6% (3543; 5457)
+2265394: mip =   4.096000000e+04 >=   3.583400000e+04  12.5% (3508; 5545)
Solution found by heuristic: 37888
+2271689: >>>>>   3.584000000e+04 >=   3.584000000e+04   0.0% (1109; 10863)
+2271689: mip =   3.584000000e+04 >=     tree is empty   0.0% (0; 14421)
INTEGER OPTIMAL SOLUTION FOUND
Time used:   656.0 secs
Memory used: 40.8 Mb (42781202 bytes)
Writing MIP solution to 'solutions/new_tr/jump30_up_right_input.lp'...
